n = 60;
hosts = [| starter: 1,2,3,4,5,6,7,8,9,10,11,12,13,14,15,16,17,18,19,20
         | main: 21,22,23,24,25,26,27,28,29,30,31,32,33,34,35,36,37,38,39,40
         | dessert: 41,42,43,44,45,46,47,48,49,50,51,52,53,54,55,56,57,58,59,60
         |];

gc = 13;
outer_groups = [
  {1,   2,  3,  4,  5}, 
  {6,   7,  8,  9, 10}, 
  {11, 12, 13, 14, 15},
  {16, 17, 18, 19, 20},
  {21, 22, 23, 24, 25},
  {26, 27, 28, 29, 30},
  {31, 32, 33, 34, 35},
  {36, 37, 38, 39, 40},
  {41, 42, 43, 44, 45},
  {46, 47, 48, 49, 50},
  {51, 52, 53, 54, 55},
  {56, 57, 58},
  {59, 60},
];

%  Coordinates for each host (in order of hosts)
coordinates = array2d(1..n, 1..2, [
  136, 60,
  888, 701,
  867, 138,
  918, 996,
  459, 717,
  981, 686,
  959, 883,
  721, 230,
  115, 301,
  654, 634,
  580, 110,
  915, 911,
  655, 590,
  724, 188,
  256, 794,
  428, 648,
  723, 513,
  153, 610,
  669, 289,
  753, 235,
  592, 927,
  332, 512,
  505, 567,
  504, 40,
  875, 520,
  29, 483,
  24, 195,
  348, 4,
  591, 16,
  318, 731,
  172, 511,
  566, 607,
  456, 365,
  688, 656,
  95, 791,
  961, 672,
  326, 272,
  110, 462,
  702, 32,
  986, 452,
  512, 619,
  979, 375,
  951, 68,
  225, 699,
  763, 709,
  500, 27,
  415, 74,
  89, 843,
  777, 137,
  560, 101,
  854, 222,
  2, 874,
  634, 674,
  245, 313,
  101, 335,
  336, 232,
  302, 8,
  548, 523,
  339, 701,
  174, 62
]);